min: 59 x1_1 + 36 x1_2 + 32 x1_3 + 14 x1_4 + 96 x1_5 + 65 x1_6 + 46 x2_1 + 65 x2_2 + 85 x2_3 + 51 x2_4 + 1 x2_5 + 59 x2_6 + 17 x3_1 + 39 x3_2 + 17 x3_3 + 2 x3_4 + 26 x3_5 + 32 x3_6 + 7 x4_1 + 28 x4_2 + 86 x4_3 + 46 x4_4 + 77 x4_5 + 8 x4_6 + 3 x5_1 + 11 x5_2 + 89 x5_3 + 54 x5_4 + 97 x5_5 + 4 x5_6 + 2 x6_1 + 48 x6_2 + 38 x6_3 + 99 x6_4 + 70 x6_5 + 44 x6_6;

x1_1 + x1_2 + x1_3 + x1_4 + x1_5 + x1_6 <= 4237;
x2_1 + x2_2 + x2_3 + x2_4 + x2_5 + x2_6 <= 3301;
x3_1 + x3_2 + x3_3 + x3_4 + x3_5 + x3_6 <= 4197;
x4_1 + x4_2 + x4_3 + x4_4 + x4_5 + x4_6 <= 4507;
x5_1 + x5_2 + x5_3 + x5_4 + x5_5 + x5_6 <= 3622;
x6_1 + x6_2 + x6_3 + x6_4 + x6_5 + x6_6 <= 3664;

x1_1 + x2_1 + x3_1 + x4_1 + x5_1 + x6_1 = 3221;
x1_2 + x2_2 + x3_2 + x4_2 + x5_2 + x6_2 = 1288;
x1_3 + x2_3 + x3_3 + x4_3 + x5_3 + x6_3 = 3689;
x1_4 + x2_4 + x3_4 + x4_4 + x5_4 + x6_4 = 992;
x1_5 + x2_5 + x3_5 + x4_5 + x5_5 + x6_5 = 2488;
x1_6 + x2_6 + x3_6 + x4_6 + x5_6 + x6_6 = 3640;

int x1_1, x1_2, x1_3, x1_4, x1_5, x1_6, x2_1, x2_2, x2_3, x2_4, x2_5, x2_6, x3_1, x3_2, x3_3, x3_4, x3_5, x3_6, x4_1, x4_2, x4_3, x4_4, x4_5, x4_6, x5_1, x5_2, x5_3, x5_4, x5_5, x5_6, x6_1, x6_2, x6_3, x6_4, x6_5, x6_6;